
  27    0


   0  16 2 3 4 5 6 7 8 9 10 11 12 13 14 24 25 26 
   7   5 23 19 18 16 15 
   9   3 20 17 16 
   9   3 21 17 15 
   8   3 19 18 15 
   3   3 21 17 15 
   8   2 17 16 
   6   2 19 15 
   6   2 18 15 
   9   2 16 15 
   5   2 16 15 
   2   1 22 
   6   1 20 
   6   1 15 
   5   1 27
   4   1 27
  10   1 27
   4   1 27
   6   1 27
   8   1 27
   1   1 27
   7   1 27
   9   1 27
  10   1 27
   5   1 27
   9   1 27
   0   0 
